<number of tasks>
50

<cycle time>
1000

<order strength>
0.897


<task times>
1 72
2 263
3 113
4 114
5 97
6 77
7 31
8 206
9 210
10 160
11 111
12 111
13 96
14 66
15 101
16 221
17 102
18 47
19 259
20 91
21 67
22 158
23 124
24 81
25 163
26 130
27 63
28 173
29 139
30 30
31 74
32 276
33 257
34 104
35 60
36 235
37 200
38 201
39 100
40 81
41 111
42 238
43 188
44 51
45 245
46 160
47 69
48 82
49 40
50 173

<precedence relations>
1,6
2,4
2,5
2,6
2,7
3,4
3,5
3,6
3,7
4,8
4,9
4,10
5,8
5,9
5,10
6,8
6,9
6,10
7,8
7,9
7,10
8,11
8,12
9,11
9,12
10,11
10,12
11,13
11,14
12,13
12,14
13,15
13,16
14,15
14,16
15,17
15,18
15,19
16,17
16,18
16,19
17,20
17,21
17,22
17,23
18,20
18,21
18,22
18,23
19,20
19,23
20,24
21,24
22,24
23,24
24,25
24,26
24,27
25,28
25,29
25,30
26,28
26,29
26,30
27,28
27,29
27,30
28,31
28,32
29,31
29,32
30,50
31,33
31,35
32,34
32,35
32,38
32,39
33,36
33,38
34,41
35,37
36,39
37,40
37,41
38,44
39,41
39,42
39,44
40,43
40,46
42,45
43,45
44,45
44,46
45,47
45,48
45,50
46,48
46,49
46,50

<end>
